
  32    4
  10   10   10   10

   0   0   0   0   0   3 2 3 31 
   4   1   0   1   1   2 30 4 
   9   3   1   0   4   3 30 13 5 
   1   4   0   4   6   2 13 5 
   1   7   5   6   0   1 6 
  10   0   3   4   4   3 29 28 7 
   7   0   2   3   3   1 8 
   9   3   3   0   3   2 27 9 
   2   8   7   0   6   2 26 10 
  10   4   0   4   5   2 25 11 
   7   0   4   1   3   1 12 
   9   3   2   0   4   2 24 14 
   7   3   0   4   6   2 24 15 
   5   4   5   5   0   1 16 
   6   1   3   5   0   1 16 
   1   3   0   5   6   3 23 19 17 
   2   2   4   0   5   3 22 20 18 
   5   4   4   0   7   1 21 
   2   7   0   7   1   1 20 
   2   4   0   4   5   1 32
   4   3   2   4   0   1 32
   1   0   5   5   4   1 32
   4   4   4   0   3   1 32
   5   0   8   3   3   1 32
  10   3   0   6   3   1 32
   7   0   3   2   3   1 32
   7   5   6   4   0   1 32
   3   6   0   5   2   1 32
   7   0   4   3   6   1 32
   2   0   7   4   3   1 32
   3   6   2   3   0   1 32
   0   0   0   0   0   0 
